32      3       
17      22      18      
0       0       0       0       3       2       3       4       
5       4       0       2       3       5       6       10      
5       2       4       5       3       7       9       11      
3       1       0       3       2       9       18      
10      0       10      9       1       8       
8       0       0       9       1       19      
8       3       9       0       3       13      14      21      
3       0       0       3       3       12      15      20      
9       0       0       5       1       27      
10      0       7       0       2       15      30      
6       0       3       2       2       17      23      
1       8       8       0       3       16      26      30      
9       9       0       0       1       29      
7       0       9       1       1       20      
4       0       7       0       1       28      
8       0       7       0       1       18      
5       7       0       0       1       31      
10      0       0       3       1       31      
8       7       7       0       1       21      
2       8       0       8       3       22      24      29      
9       1       7       3       1       29      
9       6       1       0       1       25      
6       0       0       2       1       24      
1       0       6       0       1       28      
7       0       8       0       1       27      
2       0       0       10      1       28      
8       5       9       0       1       30      
4       0       7       0       1       31      
6       0       7       0       1       32      
5       0       6       8       1       32      
1       0       0       7       1       32      
0       0       0       0       0       